DIMACS_lns/graph-1000-186.col
p edge 1000 1827
e 1 582
e 1 727
e 1 200
e 1 632
e 2 98
e 2 788
e 2 759
e 2 875
e 2 180
e 2 590
e 2 573
e 3 746
e 3 628
e 3 825
e 3 123
e 3 358
e 4 910
e 4 432
e 4 790
e 4 557
e 4 65
e 4 923
e 4 200
e 5 323
e 5 836
e 5 402
e 5 839
e 5 192
e 5 703
e 5 986
e 5 150
e 6 455
e 6 331
e 6 409
e 7 65
e 7 103
e 7 456
e 8 918
e 8 511
e 8 758
e 8 35
e 8 789
e 8 667
e 9 511
e 9 172
e 9 466
e 9 260
e 10 549
e 10 696
e 10 232
e 10 417
e 10 892
e 10 981
e 12 149
e 12 692
e 12 341
e 12 956
e 13 164
e 13 880
e 13 267
e 14 980
e 14 907
e 14 390
e 14 379
e 14 704
e 14 436
e 14 985
e 15 739
e 15 366
e 15 592
e 15 364
e 15 117
e 15 825
e 16 431
e 16 864
e 16 482
e 16 37
e 17 857
e 17 953
e 17 858
e 18 954
e 18 959
e 18 659
e 18 825
e 18 760
e 18 621
e 18 237
e 18 242
e 19 864
e 19 747
e 19 87
e 19 545
e 19 342
e 19 119
e 19 691
e 20 684
e 20 207
e 20 464
e 20 260
e 23 998
e 23 715
e 23 582
e 23 881
e 24 799
e 24 58
e 24 723
e 24 461
e 26 397
e 26 379
e 26 102
e 26 788
e 28 746
e 28 250
e 28 781
e 29 865
e 29 542
e 29 487
e 30 124
e 30 290
e 30 951
e 30 172
e 30 93
e 30 252
e 30 534
e 32 953
e 32 102
e 32 397
e 32 425
e 32 858
e 32 483
e 33 994
e 33 975
e 33 995
e 35 132
e 35 94
e 37 884
e 37 432
e 38 787
e 38 231
e 38 826
e 38 515
e 39 470
e 39 651
e 39 62
e 39 191
e 39 605
e 39 228
e 39 314
e 40 152
e 40 319
e 40 835
e 41 659
e 41 84
e 41 834
e 41 438
e 41 364
e 45 283
e 45 475
e 45 499
e 46 974
e 46 931
e 46 588
e 47 264
e 47 704
e 47 607
e 47 455
e 47 728
e 48 402
e 48 53
e 48 366
e 48 980
e 48 155
e 49 932
e 49 580
e 49 407
e 50 749
e 50 89
e 50 794
e 50 504
e 52 184
e 52 139
e 52 298
e 53 126
e 53 990
e 53 85
e 53 501
e 53 108
e 53 408
e 54 200
e 54 167
e 54 502
e 54 347
e 54 160
e 54 391
e 56 210
e 56 917
e 56 273
e 56 79
e 56 216
e 56 123
e 56 894
e 56 160
e 57 458
e 57 425
e 57 912
e 57 549
e 57 388
e 57 482
e 57 416
e 57 361
e 58 717
e 58 809
e 58 815
e 60 815
e 60 187
e 60 542
e 60 449
e 61 867
e 61 563
e 61 597
e 62 809
e 62 121
e 62 985
e 62 709
e 65 121
e 65 459
e 67 767
e 67 393
e 67 914
e 67 840
e 67 599
e 67 845
e 67 684
e 68 383
e 68 975
e 68 297
e 68 918
e 69 74
e 69 486
e 69 238
e 69 750
e 69 873
e 69 650
e 69 542
e 71 188
e 71 840
e 71 241
e 72 390
e 72 877
e 72 119
e 72 924
e 72 279
e 74 496
e 74 467
e 74 775
e 74 667
e 75 658
e 75 431
e 75 264
e 75 130
e 77 304
e 77 907
e 77 754
e 77 874
e 77 508
e 77 728
e 78 226
e 78 383
e 78 478
e 78 799
e 79 154
e 79 865
e 80 533
e 80 448
e 80 693
e 80 439
e 81 190
e 81 491
e 81 580
e 83 477
e 83 549
e 83 664
e 83 680
e 83 717
e 83 253
e 84 94
e 84 767
e 84 416
e 85 968
e 85 150
e 85 636
e 85 228
e 87 227
e 87 742
e 87 785
e 87 288
e 88 820
e 88 139
e 88 752
e 89 608
e 89 755
e 89 768
e 90 817
e 90 197
e 90 130
e 90 352
e 90 801
e 90 533
e 90 589
e 93 425
e 93 126
e 93 704
e 94 640
e 94 781
e 94 279
e 94 848
e 94 347
e 94 827
e 95 778
e 95 427
e 95 552
e 95 645
e 95 970
e 97 838
e 97 347
e 97 365
e 97 599
e 97 359
e 98 539
e 98 604
e 98 754
e 98 290
e 99 544
e 99 574
e 99 932
e 99 356
e 99 462
e 100 500
e 100 364
e 100 160
e 100 143
e 100 254
e 100 363
e 101 297
e 101 575
e 101 405
e 102 124
e 102 715
e 102 338
e 102 324
e 103 574
e 103 919
e 104 268
e 104 123
e 104 749
e 105 600
e 105 264
e 105 978
e 106 839
e 106 475
e 106 304
e 106 604
e 106 124
e 108 497
e 108 527
e 108 976
e 108 281
e 109 821
e 109 783
e 109 597
e 109 706
e 109 936
e 109 877
e 110 153
e 110 138
e 110 764
e 112 352
e 112 278
e 112 175
e 112 609
e 112 397
e 113 799
e 113 704
e 113 272
e 115 335
e 115 906
e 115 429
e 115 496
e 115 862
e 117 957
e 117 645
e 117 418
e 118 487
e 118 461
e 118 805
e 119 577
e 119 342
e 120 138
e 120 141
e 120 818
e 121 278
e 121 926
e 122 266
e 122 928
e 122 619
e 123 620
e 123 405
e 123 424
e 123 477
e 124 695
e 124 275
e 124 213
e 125 248
e 125 931
e 125 152
e 125 773
e 126 227
e 126 463
e 126 486
e 129 984
e 129 231
e 129 757
e 129 647
e 129 827
e 130 837
e 130 218
e 130 990
e 130 412
e 130 441
e 130 707
e 130 284
e 131 336
e 131 279
e 131 562
e 131 454
e 131 252
e 132 324
e 132 985
e 132 642
e 132 881
e 134 995
e 134 287
e 134 986
e 134 565
e 135 650
e 135 518
e 135 440
e 135 406
e 136 250
e 136 721
e 136 253
e 136 694
e 136 172
e 136 722
e 138 168
e 138 478
e 138 934
e 138 924
e 139 481
e 139 220
e 139 207
e 139 151
e 139 166
e 139 382
e 140 324
e 140 650
e 140 943
e 140 538
e 141 145
e 141 331
e 143 635
e 143 529
e 143 720
e 143 880
e 143 976
e 143 750
e 145 978
e 145 946
e 146 505
e 146 595
e 146 297
e 146 218
e 146 769
e 148 613
e 148 765
e 148 917
e 149 872
e 149 635
e 149 838
e 149 347
e 150 252
e 150 800
e 150 876
e 151 585
e 151 563
e 151 754
e 151 937
e 152 461
e 152 289
e 153 441
e 153 331
e 153 742
e 154 686
e 154 376
e 154 575
e 155 585
e 155 432
e 155 974
e 157 455
e 157 323
e 157 628
e 157 177
e 158 842
e 158 217
e 158 430
e 158 814
e 158 644
e 159 915
e 159 360
e 159 497
e 160 815
e 160 638
e 160 862
e 161 218
e 161 242
e 161 447
e 163 578
e 163 975
e 163 840
e 163 175
e 163 587
e 164 702
e 164 356
e 165 293
e 165 890
e 165 323
e 165 246
e 165 573
e 166 229
e 166 335
e 167 762
e 167 855
e 167 235
e 167 306
e 167 664
e 168 527
e 168 279
e 168 590
e 168 772
e 168 561
e 168 247
e 169 534
e 169 184
e 169 354
e 169 656
e 169 749
e 170 240
e 170 224
e 170 580
e 170 759
e 170 181
e 172 973
e 172 457
e 172 516
e 172 397
e 172 862
e 174 975
e 174 662
e 174 888
e 175 770
e 176 952
e 176 797
e 176 363
e 176 652
e 176 483
e 176 620
e 177 347
e 177 897
e 177 679
e 179 847
e 179 501
e 179 757
e 179 652
e 179 278
e 179 595
e 180 429
e 180 989
e 181 451
e 181 193
e 182 207
e 182 796
e 182 900
e 182 679
e 182 295
e 182 664
e 184 738
e 184 312
e 184 628
e 184 237
e 185 779
e 185 956
e 185 989
e 185 799
e 185 796
e 187 492
e 187 364
e 187 577
e 188 610
e 188 374
e 188 350
e 188 333
e 188 509
e 189 935
e 189 930
e 189 822
e 190 662
e 190 225
e 190 634
e 191 272
e 191 225
e 191 934
e 192 229
e 192 207
e 192 354
e 193 807
e 193 665
e 193 718
e 193 561
e 193 830
e 193 486
e 193 998
e 194 698
e 194 231
e 194 770
e 194 379
e 194 666
e 195 732
e 195 753
e 195 940
e 195 976
e 195 818
e 197 910
e 197 855
e 197 915
e 200 530
e 200 393
e 201 753
e 201 891
e 201 882
e 201 336
e 202 779
e 202 738
e 202 784
e 202 931
e 203 405
e 203 410
e 203 386
e 203 799
e 203 599
e 204 884
e 204 316
e 204 834
e 204 417
e 206 422
e 206 220
e 206 741
e 206 607
e 207 331
e 207 778
e 207 844
e 209 700
e 209 825
e 209 405
e 209 365
e 210 457
e 210 539
e 210 575
e 213 252
e 213 573
e 214 643
e 214 731
e 214 817
e 214 486
e 214 858
e 214 809
e 215 864
e 215 220
e 215 376
e 216 484
e 216 355
e 216 984
e 216 544
e 216 297
e 216 387
e 217 952
e 217 968
e 217 932
e 218 252
e 218 279
e 218 778
e 218 949
e 218 425
e 219 451
e 219 643
e 219 850
e 219 972
e 220 289
e 220 371
e 220 435
e 220 503
e 221 912
e 221 451
e 221 869
e 221 670
e 222 802
e 222 470
e 222 702
e 222 713
e 222 829
e 224 950
e 224 916
e 224 325
e 224 328
e 225 388
e 225 229
e 226 924
e 226 998
e 226 527
e 226 357
e 226 772
e 226 469
e 227 706
e 227 381
e 228 450
e 228 926
e 228 941
e 229 756
e 229 334
e 229 667
e 229 883
e 229 724
e 231 775
e 232 484
e 232 471
e 232 859
e 232 651
e 232 446
e 232 970
e 232 804
e 234 990
e 234 428
e 234 446
e 234 956
e 235 738
e 235 639
e 235 604
e 236 698
e 236 298
e 236 838
e 236 835
e 236 839
e 236 511
e 237 794
e 237 941
e 238 688
e 238 418
e 238 744
e 240 803
e 240 609
e 240 252
e 240 809
e 240 602
e 241 950
e 241 572
e 242 847
e 242 715
e 243 772
e 243 567
e 243 873
e 244 620
e 244 525
e 244 292
e 244 361
e 246 497
e 246 838
e 247 454
e 247 497
e 248 250
e 248 260
e 248 781
e 249 529
e 249 503
e 249 451
e 249 657
e 250 835
e 250 640
e 253 775
e 253 286
e 253 756
e 253 948
e 253 984
e 253 738
e 253 430
e 254 416
e 254 624
e 254 694
e 254 407
e 254 623
e 256 641
e 256 772
e 256 390
e 256 693
e 256 665
e 256 936
e 258 890
e 258 818
e 258 880
e 258 316
e 258 821
e 258 895
e 259 756
e 259 580
e 259 319
e 259 768
e 259 888
e 259 800
e 259 297
e 259 513
e 260 524
e 260 527
e 262 393
e 262 826
e 262 463
e 264 974
e 264 790
e 264 557
e 264 466
e 264 650
e 264 760
e 266 776
e 266 651
e 267 727
e 267 321
e 267 892
e 268 286
e 268 290
e 268 594
e 268 839
e 270 482
e 270 548
e 270 475
e 270 358
e 270 760
e 270 789
e 272 346
e 272 834
e 272 936
e 272 406
e 272 769
e 273 900
e 273 721
e 274 979
e 274 767
e 274 867
e 275 800
e 275 590
e 275 277
e 275 665
e 275 809
e 275 280
e 277 833
e 277 360
e 277 282
e 277 361
e 277 296
e 277 924
e 277 829
e 278 648
e 278 354
e 278 450
e 278 738
e 278 947
e 278 594
e 279 431
e 279 576
e 279 717
e 279 806
e 279 416
e 280 281
e 280 417
e 280 728
e 281 609
e 281 867
e 281 534
e 281 742
e 282 835
e 282 918
e 282 548
e 282 713
e 283 639
e 283 942
e 284 582
e 284 542
e 284 304
e 284 715
e 285 804
e 285 955
e 285 861
e 286 317
e 286 517
e 286 371
e 287 688
e 287 932
e 287 674
e 287 562
e 288 961
e 288 441
e 288 858
e 288 379
e 289 765
e 289 662
e 289 422
e 289 780
e 289 947
e 290 346
e 290 670
e 290 915
e 290 413
e 292 656
e 292 301
e 292 383
e 293 447
e 293 879
e 293 455
e 295 420
e 295 849
e 295 559
e 295 321
e 295 749
e 296 799
e 296 455
e 296 381
e 296 319
e 297 792
e 297 325
e 297 491
e 298 569
e 298 308
e 298 401
e 298 773
e 301 890
e 301 496
e 301 670
e 303 675
e 303 692
e 303 588
e 303 980
e 303 525
e 303 993
e 304 721
e 304 440
e 306 400
e 306 788
e 307 318
e 307 691
e 307 955
e 307 352
e 308 367
e 308 517
e 308 399
e 308 428
e 309 991
e 309 917
e 309 953
e 311 545
e 311 548
e 311 514
e 311 806
e 312 791
e 312 904
e 312 330
e 314 688
e 314 600
e 314 700
e 316 530
e 316 797
e 316 859
e 316 481
e 317 616
e 317 457
e 318 530
e 318 845
e 319 561
e 321 759
e 321 541
e 321 672
e 321 604
e 323 451
e 323 407
e 323 552
e 323 482
e 323 998
e 325 396
e 325 818
e 325 744
e 325 355
e 327 762
e 327 693
e 327 537
e 327 516
e 328 944
e 328 648
e 328 427
e 328 610
e 328 448
e 330 549
e 330 750
e 330 424
e 330 931
e 330 892
e 331 916
e 331 999
e 331 360
e 331 731
e 331 762
e 331 880
e 333 756
e 333 617
e 333 996
e 333 406
e 333 596
e 334 724
e 334 586
e 335 601
e 335 405
e 336 517
e 337 655
e 337 845
e 337 852
e 337 403
e 338 723
e 338 717
e 340 364
e 340 497
e 340 810
e 340 382
e 341 834
e 341 835
e 341 906
e 341 500
e 341 937
e 342 358
e 342 669
e 344 691
e 344 434
e 344 518
e 345 656
e 345 563
e 345 928
e 346 898
e 347 610
e 347 403
e 347 776
e 347 461
e 348 383
e 348 742
e 348 382
e 350 815
e 350 504
e 350 449
e 350 832
e 354 677
e 354 515
e 354 994
e 354 492
e 355 700
e 355 832
e 355 955
e 356 880
e 356 442
e 357 662
e 357 914
e 357 508
e 357 796
e 357 824
e 358 780
e 358 846
e 359 779
e 359 528
e 359 448
e 360 986
e 360 368
e 360 656
e 360 874
e 361 842
e 363 431
e 363 953
e 363 518
e 364 974
e 364 917
e 364 548
e 364 836
e 364 510
e 364 455
e 365 448
e 366 448
e 366 691
e 367 552
e 367 859
e 368 565
e 368 590
e 368 821
e 371 555
e 371 926
e 373 988
e 373 943
e 373 718
e 373 525
e 373 912
e 374 836
e 374 870
e 374 438
e 376 958
e 377 440
e 377 997
e 377 387
e 378 610
e 378 715
e 378 668
e 378 876
e 378 643
e 378 491
e 379 401
e 380 402
e 380 521
e 380 855
e 380 677
e 381 742
e 381 852
e 381 470
e 382 787
e 382 718
e 382 781
e 382 608
e 382 601
e 383 865
e 383 413
e 383 548
e 383 999
e 383 632
e 383 869
e 383 521
e 384 614
e 384 662
e 384 422
e 385 804
e 385 522
e 385 551
e 386 731
e 386 571
e 387 976
e 387 564
e 387 699
e 388 950
e 388 909
e 388 861
e 388 731
e 389 558
e 389 895
e 389 571
e 391 917
e 391 539
e 391 861
e 393 561
e 396 428
e 396 996
e 399 809
e 399 850
e 400 634
e 400 537
e 401 739
e 401 429
e 402 789
e 402 835
e 402 935
e 403 984
e 403 937
e 405 926
e 405 636
e 406 658
e 406 555
e 406 877
e 408 846
e 408 912
e 409 996
e 409 822
e 409 727
e 409 702
e 410 484
e 410 498
e 410 923
e 411 715
e 411 820
e 411 558
e 411 481
e 412 585
e 412 928
e 412 834
e 413 836
e 413 418
e 417 577
e 418 487
e 418 496
e 418 834
e 418 619
e 418 985
e 418 642
e 420 641
e 420 897
e 422 917
e 422 505
e 423 558
e 423 696
e 423 456
e 423 726
e 423 704
e 423 613
e 423 537
e 423 469
e 423 557
e 423 620
e 424 594
e 424 723
e 425 537
e 425 796
e 425 700
e 425 667
e 425 600
e 427 883
e 427 558
e 427 655
e 428 499
e 430 833
e 430 783
e 431 720
e 432 858
e 432 446
e 432 621
e 434 564
e 434 804
e 435 768
e 435 660
e 435 959
e 436 660
e 436 822
e 436 993
e 436 667
e 437 500
e 437 604
e 437 804
e 437 695
e 437 508
e 437 524
e 438 732
e 438 486
e 439 919
e 439 967
e 440 828
e 440 918
e 440 981
e 441 492
e 442 508
e 442 802
e 442 722
e 442 563
e 447 617
e 447 585
e 447 644
e 448 938
e 448 944
e 448 775
e 448 836
e 448 752
e 449 756
e 449 880
e 450 747
e 450 739
e 451 831
e 454 636
e 455 840
e 455 913
e 455 803
e 456 688
e 457 576
e 457 964
e 458 601
e 458 614
e 458 686
e 459 559
e 459 756
e 459 680
e 459 856
e 461 709
e 461 585
e 461 898
e 461 674
e 462 577
e 462 797
e 462 766
e 463 769
e 463 688
e 464 647
e 464 533
e 466 732
e 466 539
e 467 532
e 467 704
e 469 702
e 469 713
e 469 776
e 469 732
e 469 672
e 471 954
e 471 994
e 471 752
e 471 867
e 471 847
e 473 904
e 473 864
e 473 930
e 475 659
e 475 848
e 476 940
e 476 720
e 476 577
e 476 830
e 477 699
e 477 764
e 477 657
e 477 997
e 478 985
e 481 562
e 482 737
e 482 528
e 483 489
e 484 911
e 484 961
e 484 643
e 486 951
e 486 584
e 487 927
e 487 758
e 487 824
e 487 694
e 488 666
e 488 775
e 488 993
e 489 635
e 489 800
e 491 744
e 491 918
e 491 726
e 492 602
e 496 693
e 496 587
e 497 539
e 497 531
e 497 927
e 498 713
e 498 557
e 499 918
e 499 877
e 499 794
e 500 924
e 500 572
e 501 743
e 502 845
e 502 988
e 502 724
e 502 886
e 502 713
e 503 518
e 503 717
e 504 815
e 505 909
e 505 590
e 505 781
e 505 869
e 505 704
e 509 644
e 509 830
e 510 967
e 510 752
e 510 565
e 510 877
e 511 552
e 513 810
e 513 757
e 514 692
e 514 831
e 515 890
e 515 826
e 515 944
e 516 704
e 516 858
e 516 519
e 517 659
e 517 525
e 519 586
e 519 634
e 521 993
e 522 648
e 522 815
e 522 731
e 524 665
e 524 534
e 524 647
e 524 989
e 525 624
e 525 862
e 526 700
e 526 927
e 526 675
e 526 809
e 526 815
e 528 806
e 528 881
e 528 768
e 528 990
e 529 941
e 530 1000
e 530 723
e 531 706
e 531 744
e 532 958
e 532 716
e 533 779
e 534 791
e 534 728
e 534 711
e 534 934
e 534 926
e 534 776
e 537 781
e 537 855
e 538 879
e 538 892
e 539 704
e 539 849
e 540 590
e 540 656
e 540 608
e 540 777
e 541 549
e 541 923
e 541 636
e 542 600
e 544 932
e 544 648
e 545 707
e 545 826
e 546 658
e 546 565
e 546 900
e 546 1000
e 549 953
e 549 865
e 551 595
e 551 729
e 551 680
e 551 992
e 552 867
e 552 742
e 552 737
e 555 590
e 557 898
e 559 789
e 559 643
e 559 956
e 559 913
e 561 832
e 561 996
e 562 981
e 564 872
e 567 795
e 567 638
e 569 701
e 569 964
e 569 997
e 571 952
e 572 822
e 572 903
e 573 801
e 573 909
e 574 737
e 574 801
e 575 770
e 576 757
e 576 907
e 577 885
e 578 934
e 578 610
e 580 980
e 580 872
e 582 805
e 584 670
e 584 741
e 586 731
e 587 874
e 588 978
e 588 981
e 589 757
e 589 849
e 589 621
e 590 952
e 590 828
e 590 999
e 592 956
e 592 620
e 592 785
e 593 703
e 593 957
e 593 891
e 594 597
e 594 709
e 595 720
e 595 724
e 595 632
e 596 638
e 596 881
e 597 981
e 597 909
e 599 905
e 599 675
e 601 917
e 602 807
e 604 724
e 604 608
e 605 657
e 605 828
e 607 820
e 607 628
e 607 955
e 607 778
e 608 930
e 609 978
e 609 773
e 611 938
e 611 766
e 611 717
e 613 949
e 613 931
e 614 716
e 616 972
e 616 754
e 617 766
e 617 728
e 618 837
e 618 799
e 618 842
e 619 789
e 620 938
e 620 891
e 621 700
e 621 791
e 623 875
e 623 975
e 623 704
e 623 832
e 624 895
e 628 931
e 632 881
e 634 789
e 636 796
e 638 814
e 639 979
e 639 953
e 639 695
e 640 741
e 641 754
e 641 986
e 641 807
e 641 757
e 641 946
e 641 701
e 642 774
e 643 770
e 644 983
e 645 890
e 645 840
e 647 752
e 647 747
e 650 944
e 650 718
e 651 957
e 651 742
e 652 924
e 655 827
e 655 680
e 656 725
e 658 844
e 658 984
e 659 890
e 659 978
e 660 983
e 662 721
e 664 903
e 665 776
e 666 721
e 666 944
e 667 754
e 667 752
e 667 886
e 668 951
e 668 688
e 669 951
e 669 936
e 670 718
e 672 787
e 672 706
e 672 792
e 672 836
e 674 744
e 675 701
e 677 713
e 679 948
e 680 817
e 680 831
e 680 865
e 684 914
e 684 891
e 686 906
e 686 829
e 688 722
e 691 883
e 691 774
e 692 942
e 692 707
e 693 855
e 694 754
e 694 828
e 694 934
e 694 781
e 695 847
e 696 891
e 696 716
e 697 913
e 697 848
e 697 737
e 698 856
e 698 949
e 699 803
e 699 791
e 699 799
e 701 729
e 701 837
e 702 876
e 703 904
e 703 834
e 703 780
e 706 992
e 706 842
e 707 953
e 707 872
e 709 892
e 711 840
e 711 926
e 711 803
e 712 858
e 712 714
e 712 831
e 712 750
e 713 756
e 714 791
e 714 802
e 714 877
e 714 973
e 714 755
e 715 780
e 717 919
e 717 766
e 718 725
e 721 792
e 722 943
e 723 758
e 723 948
e 724 831
e 725 729
e 726 809
e 726 998
e 726 869
e 727 852
e 728 993
e 728 961
e 729 944
e 731 879
e 737 870
e 738 862
e 739 803
e 739 967
e 739 749
e 741 924
e 742 912
e 743 818
e 743 869
e 744 797
e 746 756
e 747 940
e 752 884
e 752 992
e 753 774
e 754 773
e 755 964
e 756 769
e 756 947
e 758 976
e 759 914
e 760 959
e 764 833
e 765 968
e 766 928
e 767 852
e 767 820
e 768 905
e 769 795
e 770 824
e 770 877
e 772 776
e 772 805
e 773 946
e 774 855
e 776 829
e 776 783
e 777 846
e 777 852
e 777 992
e 777 779
e 778 979
e 778 890
e 778 1000
e 779 856
e 780 910
e 781 826
e 783 865
e 784 785
e 784 970
e 787 873
e 790 825
e 790 837
e 795 983
e 795 984
e 795 855
e 796 851
e 799 859
e 800 862
e 801 890
e 801 874
e 801 940
e 801 882
e 801 832
e 802 870
e 804 886
e 805 988
e 805 830
e 805 976
e 806 872
e 806 942
e 806 817
e 809 957
e 810 825
e 810 973
e 814 857
e 814 914
e 815 954
e 815 911
e 818 970
e 821 976
e 824 825
e 824 986
e 825 997
e 826 957
e 830 882
e 830 858
e 831 958
e 832 905
e 832 875
e 835 910
e 835 885
e 835 917
e 836 973
e 840 918
e 844 850
e 844 955
e 846 876
e 846 852
e 851 972
e 851 991
e 852 935
e 855 940
e 856 941
e 857 994
e 857 883
e 865 947
e 865 885
e 870 995
e 875 897
e 875 911
e 876 957
e 879 991
e 885 916
e 886 910
e 888 894
e 890 972
e 894 930
e 898 974
e 903 996
e 916 981
e 917 983
e 928 999
e 932 934
e 936 984
e 938 955
e 943 1000
e 944 998
e 950 970
e 970 985
e 988 994
